NAME : random_5
COMMENT : 60 random nodes
TYPE : TSP
DIMENSION : 60
EDGE_WEIGHT_TYPE : EUC_2D
NODE_COORD_SECTION
1 345 548
2 582 323
3 308 9
4 487 791
5 786 678
6 462 99
7 477 989
8 257 823
9 585 871
10 959 32
11 41 395
12 641 352
13 745 733
14 184 491
15 330 101
16 150 67
17 489 252
18 373 671
19 614 792
20 132 973
21 264 470
22 466 458
23 782 819
24 466 685
25 150 69
26 891 907
27 46 854
28 83 110
29 543 166
30 382 104
31 506 576
32 335 488
33 229 951
34 34 660
35 992 424
36 940 370
37 35 16
38 98 254
39 132 576
40 461 897
41 186 433
42 376 190
43 558 767
44 159 710
45 337 790
46 417 150
47 13 890
48 613 103
49 807 994
50 791 842
51 731 979
52 679 735
53 573 201
54 115 71
55 360 468
56 980 139
57 964 804
58 281 725
59 887 740
60 477 579
EOF